(set-info :smt-lib-version 2.6)
(set-logic QF_BV)
(set-info :source |
Benchmarks generated by the Calysto static checker.  Provided by Domagoj
Babic.  See http://www.cs.ubc.ca/~babic/index_benchmarks.htm.  Translated using
Spear Sf2Smt translator.

|)
(set-info :category "industrial")
(set-info :status sat)
(declare-fun v42981520 () (_ BitVec 64))
(declare-fun o48248892 () (_ BitVec 1))
(declare-fun v53056900 () (_ BitVec 64))
(declare-fun o44313700 () (_ BitVec 1))
(declare-fun v38515116 () (_ BitVec 32))
(declare-fun o38579752 () (_ BitVec 64))
(declare-fun v51842868 () (_ BitVec 64))
(declare-fun o95743484 () (_ BitVec 1))
(declare-fun o58076632 () (_ BitVec 64))
(declare-fun o88117264 () (_ BitVec 64))
(declare-fun o100391756 () (_ BitVec 64))
(declare-fun o112721776 () (_ BitVec 32))
(declare-fun o77216164 () (_ BitVec 32))
(declare-fun o73278924 () (_ BitVec 1))
(declare-fun o68965280 () (_ BitVec 64))
(declare-fun v38022068 () (_ BitVec 64))
(declare-fun v56805236 () (_ BitVec 64))
(declare-fun o38811192 () (_ BitVec 64))
(declare-fun o38467972 () (_ BitVec 64))
(declare-fun o95769188 () (_ BitVec 1))
(declare-fun o25103988 () (_ BitVec 64))
(declare-fun o68084472 () (_ BitVec 64))
(declare-fun o33978812 () (_ BitVec 64))
(declare-fun o28850412 () (_ BitVec 1))
(declare-fun v46173828 () (_ BitVec 1))
(declare-fun v84010868 () (_ BitVec 32))
(declare-fun o70435180 () (_ BitVec 32))
(declare-fun v63804416 () (_ BitVec 32))
(declare-fun o58713784 () (_ BitVec 1))
(declare-fun o37488220 () (_ BitVec 1))
(declare-fun o92587056 () (_ BitVec 1))
(declare-fun o48138492 () (_ BitVec 1))
(declare-fun o83000260 () (_ BitVec 1))
(declare-fun o98571440 () (_ BitVec 1))
(declare-fun o82456220 () (_ BitVec 1))
(declare-fun o81037404 () (_ BitVec 1))
(declare-fun o52225640 () (_ BitVec 1))
(declare-fun o59331592 () (_ BitVec 1))
(declare-fun o81661472 () (_ BitVec 1))
(declare-fun o34808692 () (_ BitVec 1))
(declare-fun o41225188 () (_ BitVec 1))
(declare-fun o70615512 () (_ BitVec 1))
(declare-fun o64120020 () (_ BitVec 1))
(declare-fun o71167844 () (_ BitVec 1))
(declare-fun o47945924 () (_ BitVec 1))
(declare-fun o38130896 () (_ BitVec 1))
(declare-fun o37984888 () (_ BitVec 1))
(declare-fun o68649016 () (_ BitVec 1))
(declare-fun o51226468 () (_ BitVec 1))
(declare-fun o48341620 () (_ BitVec 1))
(declare-fun o27964072 () (_ BitVec 1))
(declare-fun o68106004 () (_ BitVec 1))
(declare-fun o48024036 () (_ BitVec 1))
(declare-fun o83867052 () (_ BitVec 1))
(declare-fun o83596000 () (_ BitVec 1))
(declare-fun o22783216 () (_ BitVec 1))
(declare-fun o67507384 () (_ BitVec 1))
(declare-fun o44052816 () (_ BitVec 1))
(declare-fun o48642220 () (_ BitVec 1))
(declare-fun o65237156 () (_ BitVec 1))
(declare-fun o22800876 () (_ BitVec 1))
(declare-fun o73471140 () (_ BitVec 1))
(declare-fun o39364592 () (_ BitVec 1))
(declare-fun o46482536 () (_ BitVec 1))
(declare-fun o110921240 () (_ BitVec 1))
(declare-fun o82128924 () (_ BitVec 1))
(declare-fun o49932972 () (_ BitVec 1))
(declare-fun o56170200 () (_ BitVec 1))
(declare-fun o39515200 () (_ BitVec 1))
(declare-fun o58731092 () (_ BitVec 1))
(declare-fun o28448556 () (_ BitVec 1))
(declare-fun o68133540 () (_ BitVec 1))
(declare-fun o75413644 () (_ BitVec 1))
(declare-fun o32788592 () (_ BitVec 1))
(declare-fun o68070792 () (_ BitVec 1))
(declare-fun o110583276 () (_ BitVec 1))
(declare-fun o58369012 () (_ BitVec 1))
(declare-fun o81711032 () (_ BitVec 1))
(declare-fun o36488968 () (_ BitVec 1))
(declare-fun o41266884 () (_ BitVec 1))
(declare-fun o64148528 () (_ BitVec 1))
(declare-fun o36269292 () (_ BitVec 1))
(declare-fun o49740584 () (_ BitVec 1))
(declare-fun o37130624 () (_ BitVec 1))
(declare-fun o58954668 () (_ BitVec 1))
(declare-fun o28178488 () (_ BitVec 1))
(declare-fun o22519908 () (_ BitVec 1))
(declare-fun o58607472 () (_ BitVec 1))
(declare-fun o70440804 () (_ BitVec 1))
(declare-fun o64119960 () (_ BitVec 1))
(declare-fun o65142696 () (_ BitVec 1))
(declare-fun o48251892 () (_ BitVec 1))
(declare-fun o32566028 () (_ BitVec 1))
(declare-fun o68960596 () (_ BitVec 1))
(declare-fun o28611028 () (_ BitVec 1))
(declare-fun o39301528 () (_ BitVec 1))
(declare-fun o37609816 () (_ BitVec 1))
(declare-fun o56163532 () (_ BitVec 1))
(declare-fun o40231224 () (_ BitVec 1))
(declare-fun o39930664 () (_ BitVec 1))
(declare-fun o65830828 () (_ BitVec 1))
(declare-fun o44564904 () (_ BitVec 1))
(declare-fun o52116816 () (_ BitVec 1))
(declare-fun o46848676 () (_ BitVec 1))
(declare-fun o56836776 () (_ BitVec 1))
(declare-fun o38443816 () (_ BitVec 1))
(declare-fun o69869448 () (_ BitVec 1))
(declare-fun o30164264 () (_ BitVec 1))
(declare-fun o44693848 () (_ BitVec 1))
(declare-fun o113284164 () (_ BitVec 1))
(declare-fun o52533264 () (_ BitVec 1))
(declare-fun o59205740 () (_ BitVec 1))
(declare-fun o63383604 () (_ BitVec 1))
(declare-fun o24956916 () (_ BitVec 1))
(declare-fun o46216560 () (_ BitVec 1))
(declare-fun o14963876 () (_ BitVec 1))
(declare-fun o40811880 () (_ BitVec 1))
(declare-fun o67500868 () (_ BitVec 1))
(declare-fun o31530240 () (_ BitVec 1))
(declare-fun o80192836 () (_ BitVec 1))
(declare-fun o45605144 () (_ BitVec 64))
(declare-fun o43479136 () (_ BitVec 64))
(declare-fun o97687452 () (_ BitVec 1))
(declare-fun o65448116 () (_ BitVec 1))
(declare-fun o123696072 () (_ BitVec 1))
(declare-fun o50947248 () (_ BitVec 1))
(declare-fun o150304236 () (_ BitVec 1))
(declare-fun o70864272 () (_ BitVec 1))
(declare-fun v51786132 () (_ BitVec 64))
(declare-fun o101002424 () (_ BitVec 1))
(declare-fun o46513756 () (_ BitVec 1))
(declare-fun o46841948 () (_ BitVec 1))
(declare-fun o42542808 () (_ BitVec 1))
(declare-fun o56865504 () (_ BitVec 1))
(declare-fun v51843636 () (_ BitVec 1))
(declare-fun v68681028 () (_ BitVec 64))
(declare-fun o16477240 () (_ BitVec 64))
(declare-fun o28079756 () (_ BitVec 64))
(declare-fun v56801200 () (_ BitVec 64))
(declare-fun v40884512 () (_ BitVec 64))
(declare-fun o48161040 () (_ BitVec 64))
(declare-fun o36562080 () (_ BitVec 64))
(declare-fun o90761188 () (_ BitVec 64))
(declare-fun o40361020 () (_ BitVec 1))
(declare-fun o39535336 () (_ BitVec 1))
(declare-fun o67498016 () (_ BitVec 1))
(declare-fun o50686868 () (_ BitVec 1))
(declare-fun o97688208 () (_ BitVec 1))
(declare-fun o46191832 () (_ BitVec 1))
(declare-fun o101674972 () (_ BitVec 1))
(declare-fun o82938904 () (_ BitVec 1))
(declare-fun o21637916 () (_ BitVec 1))
(declare-fun o57447696 () (_ BitVec 1))
(declare-fun o70436820 () (_ BitVec 1))
(declare-fun o90975440 () (_ BitVec 1))
(declare-fun o149846268 () (_ BitVec 1))
(declare-fun o40269804 () (_ BitVec 1))
(declare-fun o82746888 () (_ BitVec 1))
(declare-fun o56041144 () (_ BitVec 1))
(declare-fun o47335760 () (_ BitVec 1))
(declare-fun o101502136 () (_ BitVec 1))
(declare-fun o82524060 () (_ BitVec 1))
(declare-fun o39035092 () (_ BitVec 1))
(declare-fun o69229216 () (_ BitVec 1))
(declare-fun o43032268 () (_ BitVec 1))
(declare-fun o16618068 () (_ BitVec 1))
(declare-fun o50531524 () (_ BitVec 1))
(declare-fun v16703964 () (_ BitVec 32))
(declare-fun o74085204 () (_ BitVec 1))
(declare-fun o58018136 () (_ BitVec 1))
(declare-fun Fresh__0 () (_ BitVec 1))
(declare-fun Fresh__1 () (_ BitVec 1))
(declare-fun Fresh__2 () (_ BitVec 1))
(declare-fun Fresh__3 () (_ BitVec 1))
(declare-fun Fresh__4 () (_ BitVec 1))
(declare-fun Fresh__5 () (_ BitVec 1))
(declare-fun Fresh__6 () (_ BitVec 1))
(declare-fun Fresh__7 () (_ BitVec 1))
(declare-fun Fresh__8 () (_ BitVec 1))
(declare-fun Fresh__9 () (_ BitVec 1))
(declare-fun Fresh__10 () (_ BitVec 1))
(declare-fun Fresh__11 () (_ BitVec 1))
(declare-fun Fresh__12 () (_ BitVec 1))
(declare-fun Fresh__13 () (_ BitVec 1))
(declare-fun Fresh__14 () (_ BitVec 1))
(declare-fun Fresh__15 () (_ BitVec 1))
(declare-fun Fresh__16 () (_ BitVec 1))
(declare-fun Fresh__17 () (_ BitVec 1))
(declare-fun Fresh__18 () (_ BitVec 1))
(declare-fun Fresh__19 () (_ BitVec 1))
(declare-fun Fresh__20 () (_ BitVec 1))
(declare-fun Fresh__21 () (_ BitVec 1))
(declare-fun Fresh__22 () (_ BitVec 1))
(declare-fun Fresh__23 () (_ BitVec 1))
(declare-fun Fresh__24 () (_ BitVec 1))
(declare-fun Fresh__25 () (_ BitVec 1))
(declare-fun Fresh__26 () (_ BitVec 1))
(declare-fun Fresh__27 () (_ BitVec 1))
(declare-fun Fresh__28 () (_ BitVec 1))
(declare-fun Fresh__29 () (_ BitVec 1))
(declare-fun Fresh__30 () (_ BitVec 1))
(declare-fun Fresh__31 () (_ BitVec 1))
(declare-fun Fresh__32 () (_ BitVec 1))
(declare-fun Fresh__33 () (_ BitVec 1))
(declare-fun Fresh__34 () (_ BitVec 1))
(declare-fun Fresh__35 () (_ BitVec 1))
(declare-fun Fresh__36 () (_ BitVec 1))
(declare-fun Fresh__37 () (_ BitVec 1))
(declare-fun Fresh__38 () (_ BitVec 1))
(declare-fun Fresh__39 () (_ BitVec 1))
(declare-fun Fresh__40 () (_ BitVec 1))
(declare-fun Fresh__41 () (_ BitVec 1))
(declare-fun Fresh__42 () (_ BitVec 1))
(declare-fun Fresh__43 () (_ BitVec 1))
(declare-fun Fresh__44 () (_ BitVec 1))
(declare-fun Fresh__45 () (_ BitVec 1))
(declare-fun Fresh__46 () (_ BitVec 1))
(declare-fun Fresh__47 () (_ BitVec 1))
(declare-fun Fresh__48 () (_ BitVec 1))
(declare-fun Fresh__49 () (_ BitVec 1))
(declare-fun Fresh__50 () (_ BitVec 1))
(declare-fun Fresh__51 () (_ BitVec 1))
(declare-fun Fresh__52 () (_ BitVec 1))
(declare-fun Fresh__53 () (_ BitVec 1))
(declare-fun Fresh__54 () (_ BitVec 1))
(declare-fun Fresh__55 () (_ BitVec 1))
(declare-fun Fresh__56 () (_ BitVec 1))
(declare-fun Fresh__57 () (_ BitVec 1))
(declare-fun Fresh__58 () (_ BitVec 1))
(declare-fun Fresh__59 () (_ BitVec 1))
(declare-fun Fresh__60 () (_ BitVec 1))
(declare-fun Fresh__61 () (_ BitVec 1))
(declare-fun Fresh__62 () (_ BitVec 1))
(declare-fun Fresh__63 () (_ BitVec 1))
(declare-fun Fresh__64 () (_ BitVec 1))
(declare-fun Fresh__65 () (_ BitVec 1))
(declare-fun Fresh__66 () (_ BitVec 1))
(assert (= (= Fresh__0 (_ bv1 1)) (bvsle ((_ extract 63 0) (_ bv1 64)) v42981520)))
(assert (= o48248892 Fresh__0))
(assert (= (= Fresh__1 (_ bv1 1)) (= v53056900 ((_ extract 63 0) (_ bv0 64)))))
(assert (= o44313700 Fresh__1))
(assert (= o38579752 ((_ sign_extend 32) v38515116)))
(assert (= (= Fresh__2 (_ bv1 1)) (bvslt ((_ extract 63 0) (_ bv10 64)) v51842868)))
(assert (= o95743484 Fresh__2))
(assert (= o58076632 (bvadd v51842868 ((_ extract 63 0) (_ bv1 64)))))
(assert (= o88117264 (ite (= o95743484 (_ bv1 1)) o58076632 ((_ extract 63 0) (_ bv12 64)))))
(assert (= o100391756 (bvsub o38579752 o88117264)))
(assert (= o112721776 ((_ extract 31 0) o100391756)))
(assert (= o77216164 (bvadd ((_ extract 31 0) (_ bv18446744073709551586 64)) o112721776)))
(assert (= (= Fresh__3 (_ bv1 1)) (bvsle o77216164 ((_ extract 31 0) (_ bv0 64)))))
(assert (= o73278924 Fresh__3))
(assert (= o68965280 ((_ sign_extend 32) o77216164)))
(assert (= o38811192 (bvsdiv v38022068 v56805236)))
(assert (= o38467972 (bvmul o68965280 o38811192)))
(assert (= (= Fresh__4 (_ bv1 1)) (bvsle o38467972 ((_ extract 63 0) (_ bv0 64)))))
(assert (= o95769188 Fresh__4))
(assert (= o25103988 (bvadd v42981520 v38022068)))
(assert (= o68084472 (bvmul o25103988 ((_ extract 63 0) (_ bv100 64)))))
(assert (= o33978812 (bvsdiv o68084472 v56805236)))
(assert (= (= Fresh__5 (_ bv1 1)) (bvslt o33978812 ((_ extract 63 0) (_ bv100 64)))))
(assert (= o28850412 Fresh__5))
(assert (= o70435180 (ite (= v46173828 (_ bv1 1)) ((_ extract 31 0) (_ bv0 64)) v84010868)))
(assert (= (= Fresh__6 (_ bv1 1)) (= o70435180 v63804416)))
(assert (= o58713784 Fresh__6))
(assert (= (= Fresh__7 (_ bv1 1)) (bvslt o25103988 ((_ extract 63 0) (_ bv0 64)))))
(assert (= o37488220 Fresh__7))
(assert (= (= Fresh__8 (_ bv1 1)) (= ((_ extract 63 0) (_ bv9223372036854775808 64)) o25103988)))
(assert (= o92587056 Fresh__8))
(assert (= o48138492 (bvand ((_ extract 0 0) (_ bv1 64)) o37488220)))
(assert (= (= Fresh__9 (_ bv1 1)) (bvslt o25103988 ((_ extract 63 0) (_ bv10 64)))))
(assert (= o83000260 Fresh__9))
(assert (= (= Fresh__10 (_ bv1 1)) (bvslt o25103988 ((_ extract 63 0) (_ bv100 64)))))
(assert (= o98571440 Fresh__10))
(assert (= (= Fresh__11 (_ bv1 1)) (bvsle ((_ extract 63 0) (_ bv10 64)) o25103988)))
(assert (= o82456220 Fresh__11))
(assert (= o81037404 (bvand ((_ extract 0 0) (_ bv1 64)) o82456220)))
(assert (= (= Fresh__12 (_ bv1 1)) (bvslt o25103988 ((_ extract 63 0) (_ bv1000 64)))))
(assert (= o52225640 Fresh__12))
(assert (= (= Fresh__13 (_ bv1 1)) (bvsle ((_ extract 63 0) (_ bv100 64)) o25103988)))
(assert (= o59331592 Fresh__13))
(assert (= o81661472 (bvand o81037404 o59331592)))
(assert (= (= Fresh__14 (_ bv1 1)) (bvslt o25103988 ((_ extract 63 0) (_ bv10000 64)))))
(assert (= o34808692 Fresh__14))
(assert (= (= Fresh__15 (_ bv1 1)) (bvsle ((_ extract 63 0) (_ bv1000 64)) o25103988)))
(assert (= o41225188 Fresh__15))
(assert (= o70615512 (bvand o81661472 o41225188)))
(assert (= (= Fresh__16 (_ bv1 1)) (bvslt o25103988 ((_ extract 63 0) (_ bv100000 64)))))
(assert (= o64120020 Fresh__16))
(assert (= (= Fresh__17 (_ bv1 1)) (bvsle ((_ extract 63 0) (_ bv10000 64)) o25103988)))
(assert (= o71167844 Fresh__17))
(assert (= o47945924 (bvand o71167844 o70615512)))
(assert (= (= Fresh__18 (_ bv1 1)) (bvslt o25103988 ((_ extract 63 0) (_ bv1000000 64)))))
(assert (= o38130896 Fresh__18))
(assert (= (= Fresh__19 (_ bv1 1)) (bvsle ((_ extract 63 0) (_ bv100000 64)) o25103988)))
(assert (= o37984888 Fresh__19))
(assert (= o68649016 (bvand o37984888 o47945924)))
(assert (= (= Fresh__20 (_ bv1 1)) (bvslt o25103988 ((_ extract 63 0) (_ bv10000000 64)))))
(assert (= o51226468 Fresh__20))
(assert (= (= Fresh__21 (_ bv1 1)) (bvsle ((_ extract 63 0) (_ bv1000000 64)) o25103988)))
(assert (= o48341620 Fresh__21))
(assert (= o27964072 (bvand o48341620 o68649016)))
(assert (= (= Fresh__22 (_ bv1 1)) (bvslt o25103988 ((_ extract 63 0) (_ bv100000000 64)))))
(assert (= o68106004 Fresh__22))
(assert (= (= Fresh__23 (_ bv1 1)) (bvsle ((_ extract 63 0) (_ bv10000000 64)) o25103988)))
(assert (= o48024036 Fresh__23))
(assert (= o83867052 (bvand o27964072 o48024036)))
(assert (= (= Fresh__24 (_ bv1 1)) (bvslt o25103988 ((_ extract 63 0) (_ bv1000000000 64)))))
(assert (= o83596000 Fresh__24))
(assert (= (= Fresh__25 (_ bv1 1)) (bvsle ((_ extract 63 0) (_ bv100000000 64)) o25103988)))
(assert (= o22783216 Fresh__25))
(assert (= o67507384 (bvand o83867052 o22783216)))
(assert (= (= Fresh__26 (_ bv1 1)) (bvslt o25103988 ((_ extract 63 0) (_ bv10000000000 64)))))
(assert (= o44052816 Fresh__26))
(assert (= (= Fresh__27 (_ bv1 1)) (bvsle ((_ extract 63 0) (_ bv1000000000 64)) o25103988)))
(assert (= o48642220 Fresh__27))
(assert (= o65237156 (bvand o48642220 o67507384)))
(assert (= (= Fresh__28 (_ bv1 1)) (bvslt o25103988 ((_ extract 63 0) (_ bv100000000000 64)))))
(assert (= o22800876 Fresh__28))
(assert (= (= Fresh__29 (_ bv1 1)) (bvsle ((_ extract 63 0) (_ bv10000000000 64)) o25103988)))
(assert (= o73471140 Fresh__29))
(assert (= o39364592 (bvand o65237156 o73471140)))
(assert (= (= Fresh__30 (_ bv1 1)) (bvslt o25103988 ((_ extract 63 0) (_ bv1000000000000 64)))))
(assert (= o46482536 Fresh__30))
(assert (= (= Fresh__31 (_ bv1 1)) (bvsle ((_ extract 63 0) (_ bv100000000000 64)) o25103988)))
(assert (= o110921240 Fresh__31))
(assert (= o82128924 (bvand o110921240 o39364592)))
(assert (= (= Fresh__32 (_ bv1 1)) (bvslt o25103988 ((_ extract 63 0) (_ bv10000000000000 64)))))
(assert (= o49932972 Fresh__32))
(assert (= (= Fresh__33 (_ bv1 1)) (bvsle ((_ extract 63 0) (_ bv1000000000000 64)) o25103988)))
(assert (= o56170200 Fresh__33))
(assert (= o39515200 (bvand o56170200 o82128924)))
(assert (= (= Fresh__34 (_ bv1 1)) (bvslt o25103988 ((_ extract 63 0) (_ bv100000000000000 64)))))
(assert (= o58731092 Fresh__34))
(assert (= (= Fresh__35 (_ bv1 1)) (bvsle ((_ extract 63 0) (_ bv10000000000000 64)) o25103988)))
(assert (= o28448556 Fresh__35))
(assert (= o68133540 (bvand o39515200 o28448556)))
(assert (= (= Fresh__36 (_ bv1 1)) (bvslt o25103988 ((_ extract 63 0) (_ bv1000000000000000 64)))))
(assert (= o75413644 Fresh__36))
(assert (= (= Fresh__37 (_ bv1 1)) (bvsle ((_ extract 63 0) (_ bv100000000000000 64)) o25103988)))
(assert (= o32788592 Fresh__37))
(assert (= o68070792 (bvand o68133540 o32788592)))
(assert (= (= Fresh__38 (_ bv1 1)) (bvslt o25103988 ((_ extract 63 0) (_ bv10000000000000000 64)))))
(assert (= o110583276 Fresh__38))
(assert (= (= Fresh__39 (_ bv1 1)) (bvsle ((_ extract 63 0) (_ bv1000000000000000 64)) o25103988)))
(assert (= o58369012 Fresh__39))
(assert (= o81711032 (bvand o68070792 o58369012)))
(assert (= (= Fresh__40 (_ bv1 1)) (bvslt o25103988 ((_ extract 63 0) (_ bv100000000000000000 64)))))
(assert (= o36488968 Fresh__40))
(assert (= (= Fresh__41 (_ bv1 1)) (bvsle ((_ extract 63 0) (_ bv10000000000000000 64)) o25103988)))
(assert (= o41266884 Fresh__41))
(assert (= o64148528 (bvand o41266884 o81711032)))
(assert (= (= Fresh__42 (_ bv1 1)) (bvslt o25103988 ((_ extract 63 0) (_ bv1000000000000000000 64)))))
(assert (= o36269292 Fresh__42))
(assert (= (= Fresh__43 (_ bv1 1)) (bvsle ((_ extract 63 0) (_ bv100000000000000000 64)) o25103988)))
(assert (= o49740584 Fresh__43))
(assert (= o37130624 (bvand o64148528 o49740584)))
(assert (= (= Fresh__44 (_ bv1 1)) (bvsle ((_ extract 63 0) (_ bv1000000000000000000 64)) o25103988)))
(assert (= o58954668 Fresh__44))
(assert (= o28178488 (bvand o37130624 o58954668)))
(assert (= o22519908 (ite (= o36269292 (_ bv1 1)) o37130624 o28178488)))
(assert (= o58607472 (ite (= o36488968 (_ bv1 1)) o64148528 o22519908)))
(assert (= o70440804 (ite (= o110583276 (_ bv1 1)) o81711032 o58607472)))
(assert (= o64119960 (ite (= o75413644 (_ bv1 1)) o68070792 o70440804)))
(assert (= o65142696 (ite (= o58731092 (_ bv1 1)) o68133540 o64119960)))
(assert (= o48251892 (ite (= o49932972 (_ bv1 1)) o39515200 o65142696)))
(assert (= o32566028 (ite (= o46482536 (_ bv1 1)) o82128924 o48251892)))
(assert (= o68960596 (ite (= o22800876 (_ bv1 1)) o39364592 o32566028)))
(assert (= o28611028 (ite (= o44052816 (_ bv1 1)) o65237156 o68960596)))
(assert (= o39301528 (ite (= o83596000 (_ bv1 1)) o67507384 o28611028)))
(assert (= o37609816 (ite (= o68106004 (_ bv1 1)) o83867052 o39301528)))
(assert (= o56163532 (ite (= o51226468 (_ bv1 1)) o27964072 o37609816)))
(assert (= o40231224 (ite (= o38130896 (_ bv1 1)) o68649016 o56163532)))
(assert (= o39930664 (ite (= o64120020 (_ bv1 1)) o47945924 o40231224)))
(assert (= o65830828 (ite (= o34808692 (_ bv1 1)) o70615512 o39930664)))
(assert (= o44564904 (ite (= o52225640 (_ bv1 1)) o81661472 o65830828)))
(assert (= o52116816 (ite (= o98571440 (_ bv1 1)) o81037404 o44564904)))
(assert (= o46848676 (ite (= o83000260 (_ bv1 1)) ((_ extract 0 0) (_ bv1 64)) o52116816)))
(assert (= o56836776 (ite (= o92587056 (_ bv1 1)) o48138492 o46848676)))
(assert (= o38443816 (ite (= o37488220 (_ bv1 1)) o56836776 o46848676)))
(assert (= o69869448 (bvand ((_ extract 0 0) (_ bv1 64)) o38443816)))
(assert (= o30164264 (bvand o58713784 o69869448)))
(assert (= o44693848 (bvand ((_ extract 0 0) (_ bv1 64)) o30164264)))
(assert (= (= Fresh__45 (_ bv1 1)) (bvslt ((_ extract 63 0) (_ bv0 64)) v56805236)))
(assert (= o113284164 Fresh__45))
(assert (= o52533264 (bvand o44693848 o113284164)))
(assert (= (= Fresh__46 (_ bv1 1)) (bvsle o33978812 ((_ extract 63 0) (_ bv100 64)))))
(assert (= o59205740 Fresh__46))
(assert (= o63383604 (bvand o52533264 o59205740)))
(assert (= (= Fresh__47 (_ bv1 1)) (bvsle ((_ extract 63 0) (_ bv100 64)) o33978812)))
(assert (= o24956916 Fresh__47))
(assert (= o46216560 (bvand o24956916 o63383604)))
(assert (= o14963876 (ite (= o28850412 (_ bv1 1)) o63383604 o46216560)))
(assert (= (= Fresh__48 (_ bv1 1)) (distinct o77216164 ((_ extract 31 0) (_ bv0 64)))))
(assert (= o40811880 Fresh__48))
(assert (= o67500868 (bvand o14963876 o40811880)))
(assert (= (= Fresh__49 (_ bv1 1)) (bvsle ((_ extract 63 0) (_ bv1 64)) v56805236)))
(assert (= o31530240 Fresh__49))
(assert (= o80192836 (bvand o67500868 o31530240)))
(assert (= o45605144 (bvsdiv o25103988 v56805236)))
(assert (= o43479136 (bvmul o68965280 o45605144)))
(assert (= (= Fresh__50 (_ bv1 1)) (bvsle o43479136 o68965280)))
(assert (= o97687452 Fresh__50))
(assert (= o65448116 (bvand o80192836 o97687452)))
(assert (= (= Fresh__51 (_ bv1 1)) (bvsle o38467972 o43479136)))
(assert (= o123696072 Fresh__51))
(assert (= o50947248 (bvand o65448116 o123696072)))
(assert (= o150304236 (bvand o95769188 o50947248)))
(assert (= o70864272 (bvand o73278924 o150304236)))
(assert (= (= Fresh__52 (_ bv1 1)) (= v51786132 ((_ extract 63 0) (_ bv0 64)))))
(assert (= o101002424 Fresh__52))
(assert (= (= Fresh__53 (_ bv1 1)) (distinct v51786132 ((_ extract 63 0) (_ bv0 64)))))
(assert (= o46513756 Fresh__53))
(assert (= (= Fresh__54 (_ bv1 1)) (distinct v53056900 ((_ extract 63 0) (_ bv0 64)))))
(assert (= o46841948 Fresh__54))
(assert (= o42542808 (bvand o46841948 o70864272)))
(assert (= o56865504 (bvand o46513756 o42542808)))
(assert (= o16477240 (bvadd v68681028 v51786132)))
(assert (= o28079756 (bvmul ((_ extract 63 0) (_ bv1000 64)) o16477240)))
(assert (= o48161040 (bvsub v56801200 v40884512)))
(assert (= o36562080 (bvadd v53056900 o48161040)))
(assert (= o90761188 (bvsdiv o28079756 o36562080)))
(assert (= (= Fresh__55 (_ bv1 1)) (bvslt o90761188 ((_ extract 63 0) (_ bv1024 64)))))
(assert (= o40361020 Fresh__55))
(assert (= (= Fresh__56 (_ bv1 1)) (bvsle ((_ extract 63 0) (_ bv0 64)) o36562080)))
(assert (= o39535336 Fresh__56))
(assert (= o67498016 (bvand ((_ extract 0 0) (_ bv1 64)) o39535336)))
(assert (= (= Fresh__57 (_ bv1 1)) (bvsle ((_ extract 63 0) (_ bv0 64)) o16477240)))
(assert (= o50686868 Fresh__57))
(assert (= o97688208 (bvand o67498016 o50686868)))
(assert (= (= Fresh__58 (_ bv1 1)) (bvslt o90761188 ((_ extract 63 0) (_ bv1048576 64)))))
(assert (= o46191832 Fresh__58))
(assert (= (= Fresh__59 (_ bv1 1)) (bvsle ((_ extract 63 0) (_ bv1024 64)) o90761188)))
(assert (= o101674972 Fresh__59))
(assert (= o82938904 (bvand o97688208 o101674972)))
(assert (= (= Fresh__60 (_ bv1 1)) (bvslt o90761188 ((_ extract 63 0) (_ bv1073741824 64)))))
(assert (= o21637916 Fresh__60))
(assert (= (= Fresh__61 (_ bv1 1)) (bvsle ((_ extract 63 0) (_ bv1048576 64)) o90761188)))
(assert (= o57447696 Fresh__61))
(assert (= o70436820 (bvand o57447696 o82938904)))
(assert (= (= Fresh__62 (_ bv1 1)) (bvsle ((_ extract 63 0) (_ bv1073741824 64)) o90761188)))
(assert (= o90975440 Fresh__62))
(assert (= o149846268 (bvand o90975440 o70436820)))
(assert (= o40269804 (ite (= o21637916 (_ bv1 1)) o70436820 o149846268)))
(assert (= o82746888 (ite (= o46191832 (_ bv1 1)) o82938904 o40269804)))
(assert (= o56041144 (ite (= o40361020 (_ bv1 1)) o97688208 o82746888)))
(assert (= o47335760 (ite (= v51843636 (_ bv1 1)) o56041144 ((_ extract 0 0) (_ bv0 64)))))
(assert (= o101502136 (bvand o56865504 o47335760)))
(assert (= o82524060 (ite (= o101002424 (_ bv1 1)) o70864272 o101502136)))
(assert (= o39035092 (ite (= o44313700 (_ bv1 1)) o70864272 o82524060)))
(assert (= o69229216 (bvand o39035092 o31530240)))
(assert (= o43032268 (bvand o48248892 o69229216)))
(assert (= (= Fresh__63 (_ bv1 1)) (bvslt ((_ extract 63 0) (_ bv3000 64)) v56801200)))
(assert (= o16618068 Fresh__63))
(assert (= o50531524 (bvand o43032268 o16618068)))
(assert (= (= Fresh__64 (_ bv1 1)) (distinct ((_ extract 31 0) (_ bv0 64)) v16703964)))
(assert (= o74085204 Fresh__64))
(assert (= (= Fresh__65 (_ bv1 1)) (=> (= o50531524 (_ bv1 1)) (= o74085204 (_ bv1 1)))))
(assert (= o58018136 Fresh__65))
(assert (= (= Fresh__66 (_ bv1 1)) (= ((_ extract 0 0) (_ bv0 64)) o58018136)))
(assert (= (_ bv1 1) Fresh__66))
(check-sat)
(exit)
